     Program PWSCF v.7.2 starts on 13Mar2024 at 17:24:26

     Reading input from iron.scf
     Message from routine read_cards :
     DEPRECATED: no units specified in ATOMIC_POSITIONS card
     Message from routine read_cards :
     ATOMIC_POSITIONS: units set to alat

     Current dimensions of program PWSCF are:
     Max number of different atomic species (ntypx) = 10
     Max number of k-points (npk) =  40000
     Max angular momentum in pseudopotentials (lmaxx) =  4
     WARNING: atomic wfc #  5 for atom typeFe has zero norm

     R & G space division:  proc/nbgrp/npool/nimage =       4
     Subspace diagonalization in iterative solution of the eigenvalue problem:
     a serial algorithm will be used

     Using Slab Decomposition

     bravais-lattice index     =            3
     lattice parameter (alat)  =       5.4235  a.u.
     unit-cell volume          =      79.7644 (a.u.)^3
     number of atoms/cell      =            1
     number of atomic types    =            1
     number of electrons       =         8.00
     number of Kohn-Sham states=            8
     kinetic-energy cutoff     =     120.0000  Ry
     charge density cutoff     =     800.0000  Ry
     scf convergence threshold =      1.0E-08
     mixing beta               =       0.7000
     number of iterations used =            8  plain     mixing
     Exchange-correlation=  SLA  PW   PBX  PBC
                           (   1   4   3   4   0   0   0)

     celldm(1)=   5.423500  celldm(2)=   0.000000  celldm(3)=   0.000000
     celldm(4)=   0.000000  celldm(5)=   0.000000  celldm(6)=   0.000000

     crystal axes: (cart. coord. in units of alat)
               a(1) = (   0.500000   0.500000   0.500000 )
               a(2) = (  -0.500000   0.500000   0.500000 )
               a(3) = (  -0.500000  -0.500000   0.500000 )

     reciprocal axes: (cart. coord. in units 2 pi/alat)
               b(1) = (  1.000000  0.000000  1.000000 )
               b(2) = ( -1.000000  1.000000  0.000000 )
               b(3) = (  0.000000 -1.000000  1.000000 )

     PseudoPot. # 1 for Fe read from file:
     pseudo/Fe.jry.pbe.UPF
     MD5 check sum: a8bb50c89a6176606a0e5b7b8e4b870c
     Pseudo is Norm-conserving + core correction, Zval =  8.0
     Generated by new atomic code, or converted to UPF format
     Using radial grid of 1165 points,  2 beta functions with:
                l(1) =   2
                l(2) =   1

     atomic species   valence    mass     pseudopotential
        Fe1            8.00    55.85000     Fe( 1.00)

     Starting magnetic structure
     atomic species   magnetization
        Fe1         -1.000

     48 Sym. Ops., with inversion, found

   Cartesian axes

     site n.     atom                  positions (alat units)
         1           Fe1 tau(   1) = (   0.0000000   0.0000000   0.0000000  )

     number of k points=   145  Marzari-Vanderbilt smearing, width (Ry)=  0.0200

     Number of k-points >= 100: set verbosity='high' to print them.

     Initial potential from superposition of free atoms

     starting charge       7.9881, renormalised to       8.0000
     Starting wfcs are    9 randomized atomic wfcs

     Self-consistent Calculation

     iteration #  1     ecut=   120.00 Ry     beta= 0.70
     Davidson diagonalization with overlap
     ethr =  1.00E-02,  avg # of iterations =  4.3

     total energy              =     -59.09637199 Ry
     estimated scf accuracy    <       0.62268788 Ry

     total magnetization       =    -3.46 Bohr mag/cell
     absolute magnetization    =     3.47 Bohr mag/cell

[...]

     total energy              =     -59.36273113 Ry
     estimated scf accuracy    <       0.00000004 Ry

[...]

     iteration # 11     ecut=   120.00 Ry     beta= 0.70
     Davidson diagonalization with overlap
     ethr =  5.35E-10,  avg # of iterations =  1.1

     Magnetic moment per site  (integrated on atomic sphere of radius R)
     atom   1 (R=0.357)  charge=  6.4968  magn= -2.2676

     End of self-consistent calculation

     Number of k-points >= 100: set verbosity='high' to print the bands.

     the Fermi energy is    12.6256 ev

!    total energy              =     -59.36273117 Ry
     estimated scf accuracy    <          7.6E-11 Ry
     smearing contrib. (-TS)   =       0.00077376 Ry
     internal energy E=F+TS    =     -59.36350493 Ry

     The total energy is F=E-TS. E is the sum of the following terms:
     one-electron contribution =       5.26153386 Ry
     hartree contribution      =       7.76052092 Ry
     xc contribution           =     -29.44079327 Ry
     ewald contribution        =     -42.94476644 Ry

     total magnetization       =    -2.22 Bohr mag/cell
     absolute magnetization    =     2.34 Bohr mag/cell

     convergence has been achieved in  11 iterations

     Writing all to output data dir ./Fe.save/

     General routines

     Parallel routines

   This run was terminated on:  17:24:54  13Mar2024

   JOB DONE.